
<<< setup


<<< generate

CPXPARAM_Simplex_Tolerances_Optimality           0.001
CPXPARAM_Simplex_Tolerances_Feasibility          0.001
CPXPARAM_TimeLimit                               3600
CPXPARAM_Threads                                 8
CPXPARAM_MIP_Tolerances_AbsMIPGap                0.001
CPXPARAM_MIP_Tolerances_MIPGap                   0.001
CPXPARAM_MIP_Tolerances_Integrality              0.001
CPXPARAM_MIP_Display                             4
CPXPARAM_MIP_PolishAfter_Solutions               1
Tried aggregator 1 time.
MIQCP Presolve eliminated 2 rows and 2 columns.
Reduced MIQCP has 133 rows, 387 columns, and 4489 nonzeros.
Reduced MIQCP has 0 binaries, 32 generals, 0 SOSs, and 0 indicators.
Reduced MIQCP has 66 quadratic constraints.
Presolve time = 0.00 sec. (1.92 ticks)
MIP emphasis: balance optimality and feasibility.
MIP search method: dynamic search.
Parallel mode: deterministic, using up to 8 threads.
Initializing dual steep norms . . .

Iteration log . . .
Iteration:     1   Scaled dual infeas =           229.745314

Iteration log . . .
Iteration:     1    Scaled infeas =             0.000000
Root relaxation solution time = 0.00 sec. (0.33 ticks)

        Nodes                                         Cuts/
   Node  Left     Objective  IInf  Best Integer    Best Bound    ItCnt     Gap

*     0     0      integral     0        0.0000        0.0000       12    0.00%
Elapsed time = 0.03 sec. (18.30 ticks, tree = 0.00 MB, solutions = 1)
Found incumbent of value 0.000000 after 0.03 sec. (18.30 ticks)

Root node processing (before b&c):
  Real time             =    0.03 sec. (18.32 ticks)
Parallel b&c, 8 threads:
  Real time             =    0.00 sec. (0.00 ticks)
  Sync time (average)   =    0.00 sec.
  Wait time (average)   =    0.00 sec.
                          ------------
Total (root+branch&cut) =    0.03 sec. (18.32 ticks)

<<< solve


OBJECTIVE: 1.907154e-9
X*: [7.0061 -7.0002 7.0036 -7.0003 7.002 -7.0003 7.0011 -7.0003 7.0005 -7.0003
     7.0003 -7.0003 7.0001 -7.0003 7.0001 -7.0003 7 -7.0003 7 -7.0003 6.9999
     -7.0003 6.9999 -7.0003 6.9999 -7.0003 6.9998 -7.0003 6.9998 -7.0003 6.9998
     -7.0003] Z*: [7 -7 7 -7 7 -7 7 -7 7 -7 7 -7 7 -7 7 -7 7 -7 7 -7 7 -7 7 -7 7 -7 7 -7 7 -7
     7 -7]
f*:3.609575329e-07

<<< post process


<<< done

